\* Fantasy_Team *\
Maximize
OBJ: 5.38 DEF_ARI + 8.54 DEF_ATL + 5.09 DEF_CHI + 2.93 DEF_CIN + 6.5 DEF_CLE
 + 2.58 DEF_DET + 6.9 DEF_GB + 4.46 DEF_HOU + 7.85 DEF_IND + 5.13 DEF_LAC
 + 9.47 DEF_LAR + 3.32 DEF_LV + 9.38 DEF_MIA + 4.1 DEF_MIN + 4.87 DEF_NE
 + 10.93 DEF_NO + 7.17 DEF_NYG + 4.8 DEF_NYJ + 4.92 DEF_PHI + 6.07 DEF_SEA
 + 4.85 DEF_TEN + 22.27 QB_Aaron_Rodgers + 13.93 QB_Baker_Mayfield
 + 6.26 QB_Brandon_Allen + 17.28 QB_Cam_Newton + 17.71 QB_Carson_Wentz
 + 6.82 QB_Chase_Daniel + 17.25 QB_Daniel_Jones + 20.36 QB_Deshaun_Watson
 + 21.29 QB_Gardner_Minshew + 4.86 QB_Jacoby_Brissett + 12.87 QB_Jake_Luton
 + 15.06 QB_Jared_Goff + 12.78 QB_Joe_Flacco + 22.04 QB_Justin_Herbert
 + 22.82 QB_Kirk_Cousins + 15.59 QB_Matt_Ryan + 15.35 QB_Matthew_Stafford
 + 20.32 QB_Mike_Glennon + 15.09 QB_Mitchell_Trubisky + 16.24 QB_Nick_Foles
 + 19.19 QB_Philip_Rivers + 21.76 QB_Russell_Wilson
 + 18.17 QB_Ryan_Fitzpatrick + 20.19 QB_Ryan_Tannehill + 9.38 QB_Sam_Darnold
 + 10.63 QB_Taysom_Hill + 12.27 QB_Tua_Tagovailoa + 8.52 QB_Tyrod_Taylor
 + 18.16 RB_Aaron_Jones + 6.59 RB_Adrian_Peterson + 3.62 RB_Alfred_Morris
 + 18.17 RB_Alvin_Kamara + 5.81 RB_Ameer_Abdullah + 7.16 RB_Boston_Scott
 + 2.77 RB_Brian_Hill + 6.76 RB_Cam_Akers + 8.25 RB_Carlos_Hyde
 + 8.21 RB_Chase_Edmonds + 12.31 RB_Chris_Carson + 2.83 RB_Corey_Clement
 + 1.04 RB_Cullen_Gillaspia + 11.12 RB_D'Andre_Swift
 + 2.15 RB_D'Ernest_Johnson + 3.22 RB_D'Onta_Foreman + 1.17 RB_DJ_Foster
 + 9.72 RB_Damien_Harris + 0.43 RB_Dare_Ogunbowale + 7.3 RB_Darrell_Henderson
 + 0.95 RB_Darrynton_Evans + 9.96 RB_David_Johnson + 14.71 RB_David_Montgomery
 + 2.91 RB_DeAndre_Washington + 6.3 RB_DeeJay_Dallas + 19 RB_Derrick_Henry
 + 1.73 RB_Devine_Ozigbo + 6.69 RB_Devonta_Freeman + 6.59 RB_Devontae_Booker
 + 3.06 RB_Dion_Lewis + 2.86 RB_Dontrell_Hilliard + 6.66 RB_Duke_Johnson
 + 0.75 RB_Dwayne_Washington + 0.52 RB_Elijhaa_Penny + 8.89 RB_Frank_Gore
 + 8.7 RB_Giovani_Bernard + 2.34 RB_Ito_Smith + 2.71 RB_JJ_Taylor
 + 3.25 RB_Jalen_Richard + 14.08 RB_James_Robinson + 8.1 RB_James_White
 + 0.71 RB_Jason_Huntley + 2.1 RB_Jeremy_McNichols + 13.24 RB_Jonathan_Taylor
 + 2.3 RB_Jonathan_Williams + 5.34 RB_Jordan_Howard + 6.2 RB_Jordan_Wilkins
 + 3.59 RB_Josh_Adams + 5.67 RB_Joshua_Kelley + 9.2 RB_Justin_Jackson
 + 10.01 RB_Kalen_Ballage + 12.45 RB_Kareem_Hunt + 11.32 RB_Kenyan_Drake
 + 4.42 RB_Kerryon_Johnson + 9.78 RB_Latavius_Murray + 0.31 RB_Lynn_Bowden
 + 7.33 RB_Malcolm_Brown + 2.95 RB_Matt_Breida + 0.73 RB_Michael_Burton
 + 1.63 RB_Mike_Boone + 10.63 RB_Miles_Sanders + 13.24 RB_Myles_Gaskin
 + 17.3 RB_Nick_Chubb + 15.1 RB_Nyheim_Hines + 1.02 RB_Patrick_Laird
 + 0.19 RB_Qadree_Ollison + 10.78 RB_Rex_Burkhead + 4.73 RB_Ryan_Nall
 + 10.08 RB_Salvon_Ahmed + 3.75 RB_Samaje_Perine + 9.28 RB_Sony_Michel
 + 5.92 RB_Tarik_Cohen + 7.35 RB_Todd_Gurley + 3.03 RB_Travis_Homer
 + 2.15 RB_Trayveon_Williams + 4.41 RB_Troymaine_Pope + 2.7 RB_Ty_Johnson
 + 3.66 RB_Tyler_Ervin + 11.55 RB_Wayne_Gallman + 3.85 TE_Adam_Shaheen
 + 4.47 TE_Adam_Trautman + 4.33 TE_Anthony_Firkser + 6.1 TE_Austin_Hooper
 + 0.9 TE_Ben_Ellefson + 1.3 TE_Brandon_Dillon + 0.79 TE_Cethan_Carter
 + 3.57 TE_Chris_Herndon + 2.26 TE_Cole_Kmet + 10.77 TE_Dallas_Goedert
 + 1.33 TE_Dalton_Keene + 3.33 TE_Dan_Arnold + 4.67 TE_Darren_Fells
 + 11.37 TE_Darren_Waller + 4.65 TE_David_Njoku + 1.31 TE_Demetrius_Harris
 + 2.14 TE_Derek_Carrier + 2.41 TE_Donald_Parham + 2.92 TE_Drew_Sample
 + 3.97 TE_Durham_Smythe + 0.9 TE_Eric_Saubert + 9.33 TE_Evan_Engram
 + 4.06 TE_Foster_Moreau + 2.13 TE_Geoff_Swaim + 4.75 TE_Gerald_Everett
 + 5.67 TE_Harrison_Bryant + 6.88 TE_Hayden_Hurst + 9.24 TE_Hunter_Henry
 + 2.25 TE_Jace_Sternberger + 3.86 TE_Jack_Doyle + 2.84 TE_Jacob_Hollister
 + 1.37 TE_Jaeden_Graham + 2.51 TE_James_O'Shaughnessy + 5.23 TE_Jared_Cook
 + 3.44 TE_Jason_Witten + 2.17 TE_Jesse_James + 8.08 TE_Jimmy_Graham
 + 3.5 TE_Johnny_Mundt + 10.31 TE_Jonnu_Smith + 4.6 TE_Jordan_Akins
 + 3.48 TE_Jordan_Thomas + 2.84 TE_Josh_Hill + 1.49 TE_Josiah_Deguara
 + 1.88 TE_Kaden_Smith + 6.38 TE_Kyle_Rudolph + 1.37 TE_Levine_Toilolo
 + 0.59 TE_Luke_Stocker + 3.83 TE_Marcedes_Lewis + 2.68 TE_Maxx_Williams
 + 7.76 TE_Mike_Gesicki + 4.88 TE_Mo_Alie_Cox + 3.31 TE_MyCole_Pruitt
 + 3.22 TE_Pharaoh_Brown + 8.61 TE_Richard_Rodgers + 9.37 TE_Robert_Tonyan
 + 3.19 TE_Ryan_Izzo + 0.88 TE_Stephen_Carlson + 8.16 TE_TJ_Hockenson
 + 0.5 TE_Trevon_Wesco + 8.64 TE_Trey_Burton + 1.9 TE_Tyler_Conklin
 + 5.56 TE_Tyler_Eifert + 5.58 TE_Tyler_Higbee + 2.59 TE_Will_Dissly
 + 5.27 TE_Zach_Ertz + 16.11 WR_AJ_Brown + 4.49 WR_AJ_Green
 + 7.49 WR_Adam_Humphries + 19.09 WR_Adam_Thielen + 0.05 WR_Alex_Erickson
 + 10.36 WR_Allen_Lazard + 15.41 WR_Allen_Robinson + 0.82 WR_Alshon_Jeffery
 + 2.92 WR_Andy_Isabella + 6.43 WR_Anthony_Miller + 1.63 WR_Antonio_Callaway
 + 2 WR_Ashton_Dulin + 4.24 WR_Austin_Mack + 9.1 WR_Brandin_Cooks
 + 3.51 WR_Brandon_Powell + 5.64 WR_Braxton_Berrios
 + 11.21 WR_Breshad_Perriman + 2.75 WR_Bryan_Edwards + 2.04 WR_CJ_Board
 + 13.3 WR_Calvin_Ridley + 5.44 WR_Chad_Beebe + 6.05 WR_Chris_Conley
 + 3.35 WR_Christian_Blake + 6.62 WR_Christian_Kirk + 6.17 WR_Collin_Johnson
 + 10.73 WR_Cooper_Kupp + 5.41 WR_Cordarrelle_Patterson + 11.72 WR_Corey_Davis
 + 12.81 WR_DJ_Chark + 15.07 WR_DK_Metcalf + 9.19 WR_Damiere_Byrd
 + 5.77 WR_Danny_Amendola - 1.15 WR_Dante_Pettis + 8.32 WR_Darius_Slayton
 + 6.34 WR_Darnell_Mooney + 17.38 WR_Davante_Adams + 6.09 WR_David_Moore
 - 0.42 WR_DeAndre_Carter + 10.48 WR_DeAndre_Hopkins + 11.7 WR_DeVante_Parker
 + 7.79 WR_Denzel_Mims + 4.61 WR_Deonte_Harris + 5.73 WR_Donovan_Peoples_Jones
 + 2.05 WR_Donte_Moncrief + 8.29 WR_Emmanuel_Sanders
 + 2.42 WR_Equanimeous_St_Brown + 2.52 WR_Freddie_Swain + 7.45 WR_Golden_Tate
 + 5.37 WR_Greg_Ward + 0.92 WR_Gunner_Olszewski + 5.9 WR_Henry_Ruggs
 + 8.05 WR_Hunter_Renfrow + 1.56 WR_JJ_Arcega_Whiteside + 5.68 WR_Jakeem_Grant
 + 8.57 WR_Jakobi_Meyers + 4.78 WR_Jalen_Guyton + 6.3 WR_Jalen_Reagor
 + 1.09 WR_Jamal_Agnew + 9.82 WR_Jamison_Crowder + 9.98 WR_Jarvis_Landry
 + 2.2 WR_Javon_Wims + 2.99 WR_Jeff_Smith + 2.99 WR_Joe_Reed
 + 2.65 WR_John_Hightower + 7.22 WR_Josh_Reynolds + 12.75 WR_Julio_Jones
 + 18.25 WR_Justin_Jefferson + 1.17 WR_Juwan_Johnson + 0.4 WR_KJ_Hill
 + 3.51 WR_Kalif_Raymond + 1.44 WR_KeeSean_Johnson + 10.66 WR_Keelan_Cole
 + 15.64 WR_Keenan_Allen + 3.21 WR_Keke_Coutee + 6.86 WR_Laviska_Shenault
 + 2.87 WR_Mack_Hollins + 2.46 WR_Malcolm_Perry + 2.74 WR_Malik_Taylor
 + 3.91 WR_Marcus_Johnson + 9.42 WR_Marquez_Valdes_Scantling
 + 9.06 WR_Marvin_Jones + 8.72 WR_Michael_Pittman + 9.01 WR_Michael_Thomas
 + 2.59 WR_Mike_Thomas + 8.88 WR_Mike_Williams + 5.73 WR_Mohamed_Sanu
 + 4.14 WR_N'Keal_Harry + 10.24 WR_Nelson_Agholor + 3.08 WR_Quintez_Cephus
 + 6.8 WR_Rashard_Higgins + 3.38 WR_Riley_Ridley + 13.42 WR_Robert_Woods
 + 6.3 WR_Russell_Gage + 10.51 WR_Sterling_Shepard + 7.67 WR_TY_Hilton
 + 10.94 WR_Tee_Higgins + 1.17 WR_Tommylee_Lewis + 8.36 WR_Travis_Fulgham
 + 6.41 WR_Tre'Quan_Smith + 0.84 WR_Trent_Sherfield + 9.52 WR_Tyler_Boyd
 + 12.75 WR_Tyler_Lockett + 5.62 WR_Tyron_Johnson + 3.2 WR_Van_Jefferson
 + 1.81 WR_Vyncint_Smith + 13.66 WR_Will_Fuller + 6.27 WR_Zach_Pascal
 + 3.08 WR_Zay_Jones
Subject To
_C1: 3800 DEF_ARI + 3500 DEF_ATL + 4200 DEF_CHI + 3600 DEF_CIN + 4000 DEF_CLE
 + 3500 DEF_DET + 4100 DEF_GB + 3700 DEF_HOU + 4600 DEF_IND + 3900 DEF_LAC
 + 4500 DEF_LAR + 4400 DEF_LV + 4900 DEF_MIA + 4300 DEF_MIN + 3700 DEF_NE
 + 4800 DEF_NO + 3400 DEF_NYG + 3300 DEF_NYJ + 3400 DEF_PHI + 4700 DEF_SEA
 + 3900 DEF_TEN + 8500 QB_Aaron_Rodgers + 7100 QB_Baker_Mayfield
 + 6000 QB_Brandon_Allen + 7500 QB_Cam_Newton + 7300 QB_Carson_Wentz
 + 6000 QB_Chase_Daniel + 7100 QB_Daniel_Jones + 8200 QB_Deshaun_Watson
 + 7000 QB_Gardner_Minshew + 6000 QB_Jacoby_Brissett + 6400 QB_Jake_Luton
 + 7200 QB_Jared_Goff + 6300 QB_Joe_Flacco + 7900 QB_Justin_Herbert
 + 7300 QB_Kirk_Cousins + 7400 QB_Matt_Ryan + 6800 QB_Matthew_Stafford
 + 6800 QB_Mike_Glennon + 6900 QB_Mitchell_Trubisky + 6900 QB_Nick_Foles
 + 7000 QB_Philip_Rivers + 9000 QB_Russell_Wilson + 7400 QB_Ryan_Fitzpatrick
 + 7800 QB_Ryan_Tannehill + 6500 QB_Sam_Darnold + 7700 QB_Taysom_Hill
 + 6700 QB_Tua_Tagovailoa + 6200 QB_Tyrod_Taylor + 8400 RB_Aaron_Jones
 + 5600 RB_Adrian_Peterson + 4700 RB_Alfred_Morris + 7500 RB_Alvin_Kamara
 + 4500 RB_Ameer_Abdullah + 5700 RB_Boston_Scott + 5800 RB_Brian_Hill
 + 5600 RB_Cam_Akers + 5700 RB_Carlos_Hyde + 5500 RB_Chase_Edmonds
 + 8000 RB_Chris_Carson + 4700 RB_Corey_Clement + 4500 RB_Cullen_Gillaspia
 + 6800 RB_D'Andre_Swift + 4600 RB_D'Ernest_Johnson + 4800 RB_D'Onta_Foreman
 + 4500 RB_DJ_Foster + 5900 RB_Damien_Harris + 4500 RB_Dare_Ogunbowale
 + 5600 RB_Darrell_Henderson + 4600 RB_Darrynton_Evans + 6200 RB_David_Johnson
 + 6200 RB_David_Montgomery + 5400 RB_DeAndre_Washington
 + 4900 RB_DeeJay_Dallas + 10000 RB_Derrick_Henry + 4600 RB_Devine_Ozigbo
 + 5000 RB_Devonta_Freeman + 6000 RB_Devontae_Booker + 4900 RB_Dion_Lewis
 + 4500 RB_Dontrell_Hilliard + 6000 RB_Duke_Johnson
 + 4500 RB_Dwayne_Washington + 4500 RB_Elijhaa_Penny + 5300 RB_Frank_Gore
 + 5800 RB_Giovani_Bernard + 5500 RB_Ito_Smith + 4600 RB_JJ_Taylor
 + 4500 RB_Jalen_Richard + 7800 RB_James_Robinson + 5700 RB_James_White
 + 4500 RB_Jason_Huntley + 4700 RB_Jeremy_McNichols + 6400 RB_Jonathan_Taylor
 + 4500 RB_Jonathan_Williams + 4500 RB_Jordan_Howard + 5500 RB_Jordan_Wilkins
 + 4500 RB_Josh_Adams + 5200 RB_Joshua_Kelley + 5000 RB_Justin_Jackson
 + 5100 RB_Kalen_Ballage + 6300 RB_Kareem_Hunt + 6600 RB_Kenyan_Drake
 + 5200 RB_Kerryon_Johnson + 5800 RB_Latavius_Murray + 4500 RB_Lynn_Bowden
 + 5200 RB_Malcolm_Brown + 5300 RB_Matt_Breida + 4500 RB_Michael_Burton
 + 4600 RB_Mike_Boone + 7200 RB_Miles_Sanders + 5500 RB_Myles_Gaskin
 + 8700 RB_Nick_Chubb + 6400 RB_Nyheim_Hines + 4800 RB_Patrick_Laird
 + 4900 RB_Qadree_Ollison + 4500 RB_Rex_Burkhead + 4800 RB_Ryan_Nall
 + 5600 RB_Salvon_Ahmed + 4600 RB_Samaje_Perine + 5300 RB_Sony_Michel
 + 4500 RB_Tarik_Cohen + 6600 RB_Todd_Gurley + 4600 RB_Travis_Homer
 + 4500 RB_Trayveon_Williams + 4700 RB_Troymaine_Pope + 4800 RB_Ty_Johnson
 + 4600 RB_Tyler_Ervin + 6100 RB_Wayne_Gallman + 4500 TE_Adam_Shaheen
 + 4300 TE_Adam_Trautman + 4600 TE_Anthony_Firkser + 5300 TE_Austin_Hooper
 + 4000 TE_Ben_Ellefson + 4000 TE_Brandon_Dillon + 4000 TE_Cethan_Carter
 + 4500 TE_Chris_Herndon + 4400 TE_Cole_Kmet + 6200 TE_Dallas_Goedert
 + 4000 TE_Dalton_Keene + 4600 TE_Dan_Arnold + 4800 TE_Darren_Fells
 + 7000 TE_Darren_Waller + 4700 TE_David_Njoku + 4200 TE_Demetrius_Harris
 + 4000 TE_Derek_Carrier + 4300 TE_Donald_Parham + 4500 TE_Drew_Sample
 + 4300 TE_Durham_Smythe + 4000 TE_Eric_Saubert + 6000 TE_Evan_Engram
 + 4100 TE_Foster_Moreau + 4000 TE_Geoff_Swaim + 4800 TE_Gerald_Everett
 + 4500 TE_Harrison_Bryant + 5600 TE_Hayden_Hurst + 6000 TE_Hunter_Henry
 + 4300 TE_Jace_Sternberger + 4900 TE_Jack_Doyle + 4900 TE_Jacob_Hollister
 + 4000 TE_Jaeden_Graham + 4100 TE_James_O'Shaughnessy + 5500 TE_Jared_Cook
 + 4200 TE_Jason_Witten + 4300 TE_Jesse_James + 5400 TE_Jimmy_Graham
 + 4000 TE_Johnny_Mundt + 5700 TE_Jonnu_Smith + 5200 TE_Jordan_Akins
 + 4200 TE_Jordan_Thomas + 4200 TE_Josh_Hill + 4000 TE_Josiah_Deguara
 + 4100 TE_Kaden_Smith + 4000 TE_Kahale_Warring + 5000 TE_Kyle_Rudolph
 + 4000 TE_Levine_Toilolo + 4000 TE_Luke_Stocker + 4200 TE_Marcedes_Lewis
 + 4200 TE_Maxx_Williams + 5700 TE_Mike_Gesicki + 4800 TE_Mo_Alie_Cox
 + 4000 TE_MyCole_Pruitt + 4500 TE_Pharaoh_Brown + 5200 TE_Richard_Rodgers
 + 5900 TE_Robert_Tonyan + 4500 TE_Ryan_Izzo + 4000 TE_Stephen_Carlson
 + 6100 TE_TJ_Hockenson + 4100 TE_Trevon_Wesco + 5500 TE_Trey_Burton
 + 4000 TE_Tyler_Conklin + 4000 TE_Tyler_Davis + 4700 TE_Tyler_Eifert
 + 5100 TE_Tyler_Higbee + 4500 TE_Will_Dissly + 5700 TE_Zach_Ertz
 + 8200 WR_AJ_Brown + 5200 WR_AJ_Green + 4900 WR_Adam_Humphries
 + 7800 WR_Adam_Thielen + 4500 WR_Alex_Erickson + 5600 WR_Allen_Lazard
 + 6900 WR_Allen_Robinson + 4800 WR_Alshon_Jeffery + 4800 WR_Andy_Isabella
 + 4900 WR_Anthony_Miller + 4800 WR_Antonio_Callaway + 4500 WR_Ashton_Dulin
 + 4600 WR_Austin_Mack + 6500 WR_Brandin_Cooks + 4700 WR_Brandon_Powell
 + 4700 WR_Braxton_Berrios + 5900 WR_Breshad_Perriman + 4700 WR_Bryan_Edwards
 + 4500 WR_CJ_Board + 8400 WR_Calvin_Ridley + 5300 WR_Chad_Beebe
 + 4700 WR_Chris_Conley + 4600 WR_Christian_Blake + 5800 WR_Christian_Kirk
 + 5000 WR_Collin_Johnson + 6600 WR_Cooper_Kupp
 + 5500 WR_Cordarrelle_Patterson + 6100 WR_Corey_Davis + 6300 WR_DJ_Chark
 + 8500 WR_DK_Metcalf + 5300 WR_Damiere_Byrd + 5000 WR_Danny_Amendola
 + 4500 WR_Dante_Pettis + 5700 WR_Darius_Slayton + 5100 WR_Darnell_Mooney
 + 9500 WR_Davante_Adams + 5000 WR_David_Moore + 4500 WR_DeAndre_Carter
 + 8000 WR_DeAndre_Hopkins + 6800 WR_DeVante_Parker + 5500 WR_Denzel_Mims
 + 4800 WR_Deonte_Harris + 4600 WR_Donovan_Peoples_Jones
 + 4500 WR_Donte_Moncrief + 5300 WR_Emmanuel_Sanders
 + 4500 WR_Equanimeous_St_Brown + 4700 WR_Freddie_Swain + 5200 WR_Golden_Tate
 + 4900 WR_Greg_Ward + 4500 WR_Gunner_Olszewski + 5400 WR_Henry_Ruggs
 + 5400 WR_Hunter_Renfrow + 4600 WR_JJ_Arcega_Whiteside + 4800 WR_Jakeem_Grant
 + 5900 WR_Jakobi_Meyers + 4900 WR_Jalen_Guyton + 5500 WR_Jalen_Reagor
 + 4600 WR_Jamal_Agnew + 6200 WR_Jamison_Crowder + 6000 WR_Jarvis_Landry
 + 4600 WR_Javon_Wims + 4600 WR_Jeff_Smith + 4500 WR_Joe_Reed
 + 4500 WR_John_Hightower + 5500 WR_Josh_Reynolds + 8000 WR_Julio_Jones
 + 7700 WR_Justin_Jefferson + 4500 WR_Juwan_Johnson + 4500 WR_KJ_Hill
 + 4500 WR_KJ_Osborn + 4600 WR_Kalif_Raymond + 4700 WR_KeeSean_Johnson
 + 5300 WR_Keelan_Cole + 8100 WR_Keenan_Allen + 4800 WR_Keke_Coutee
 + 5200 WR_Laviska_Shenault + 4600 WR_Mack_Hollins + 4500 WR_Malcolm_Perry
 + 4600 WR_Malik_Taylor + 4600 WR_Marcus_Johnson
 + 5700 WR_Marquez_Valdes_Scantling + 6000 WR_Marvin_Jones
 + 5600 WR_Michael_Pittman + 7200 WR_Michael_Thomas + 4500 WR_Mike_Thomas
 + 5800 WR_Mike_Williams + 4900 WR_Mohamed_Sanu + 5100 WR_N'Keal_Harry
 + 5400 WR_Nelson_Agholor + 4500 WR_Nsimba_Webster + 4700 WR_Quintez_Cephus
 + 5400 WR_Rashard_Higgins + 4500 WR_Riley_Ridley + 7100 WR_Robert_Woods
 + 5200 WR_Russell_Gage + 5600 WR_Sterling_Shepard + 5600 WR_TY_Hilton
 + 4500 WR_Tajae_Sharpe + 6400 WR_Tee_Higgins + 4500 WR_Tommylee_Lewis
 + 6300 WR_Travis_Fulgham + 4800 WR_Tre'Quan_Smith + 4500 WR_Trent_Sherfield
 + 6600 WR_Tyler_Boyd + 7900 WR_Tyler_Lockett + 4800 WR_Tyron_Johnson
 + 4800 WR_Van_Jefferson + 4500 WR_Vyncint_Smith + 7500 WR_Will_Fuller
 + 4800 WR_Zach_Pascal + 4700 WR_Zay_Jones <= 45800
_C10: RB_Aaron_Jones + RB_Adrian_Peterson + RB_Alfred_Morris + RB_Alvin_Kamara
 + RB_Ameer_Abdullah + RB_Boston_Scott + RB_Brian_Hill + RB_Cam_Akers
 + RB_Carlos_Hyde + RB_Chase_Edmonds + RB_Chris_Carson + RB_Corey_Clement
 + RB_D'Andre_Swift + RB_D'Ernest_Johnson + RB_D'Onta_Foreman
 + RB_Damien_Harris + RB_Darrell_Henderson + RB_David_Johnson
 + RB_David_Montgomery + RB_DeAndre_Washington + RB_DeeJay_Dallas
 + RB_Derrick_Henry + RB_Devine_Ozigbo + RB_Devonta_Freeman
 + RB_Devontae_Booker + RB_Dion_Lewis + RB_Dontrell_Hilliard + RB_Duke_Johnson
 + RB_Frank_Gore + RB_Giovani_Bernard + RB_Ito_Smith + RB_JJ_Taylor
 + RB_Jalen_Richard + RB_James_Robinson + RB_James_White + RB_Jeremy_McNichols
 + RB_Jonathan_Taylor + RB_Jonathan_Williams + RB_Jordan_Howard
 + RB_Jordan_Wilkins + RB_Josh_Adams + RB_Joshua_Kelley + RB_Justin_Jackson
 + RB_Kalen_Ballage + RB_Kareem_Hunt + RB_Kenyan_Drake + RB_Kerryon_Johnson
 + RB_Latavius_Murray + RB_Malcolm_Brown + RB_Matt_Breida + RB_Miles_Sanders
 + RB_Myles_Gaskin + RB_Nick_Chubb + RB_Nyheim_Hines + RB_Rex_Burkhead
 + RB_Ryan_Nall + RB_Salvon_Ahmed + RB_Samaje_Perine + RB_Sony_Michel
 + RB_Tarik_Cohen + RB_Todd_Gurley + RB_Travis_Homer + RB_Trayveon_Williams
 + RB_Troymaine_Pope + RB_Ty_Johnson + RB_Tyler_Ervin + RB_Wayne_Gallman
 + TE_Adam_Shaheen + TE_Adam_Trautman + TE_Anthony_Firkser + TE_Austin_Hooper
 + TE_Ben_Ellefson + TE_Brandon_Dillon + TE_Cethan_Carter + TE_Chris_Herndon
 + TE_Cole_Kmet + TE_Dallas_Goedert + TE_Dalton_Keene + TE_Dan_Arnold
 + TE_Darren_Fells + TE_Darren_Waller + TE_David_Njoku + TE_Demetrius_Harris
 + TE_Derek_Carrier + TE_Donald_Parham + TE_Drew_Sample + TE_Durham_Smythe
 + TE_Eric_Saubert + TE_Evan_Engram + TE_Foster_Moreau + TE_Geoff_Swaim
 + TE_Gerald_Everett + TE_Harrison_Bryant + TE_Hayden_Hurst + TE_Hunter_Henry
 + TE_Jace_Sternberger + TE_Jack_Doyle + TE_Jacob_Hollister + TE_Jaeden_Graham
 + TE_James_O'Shaughnessy + TE_Jared_Cook + TE_Jason_Witten + TE_Jesse_James
 + TE_Jimmy_Graham + TE_Johnny_Mundt + TE_Jonnu_Smith + TE_Jordan_Akins
 + TE_Jordan_Thomas + TE_Josh_Hill + TE_Josiah_Deguara + TE_Kaden_Smith
 + TE_Kahale_Warring + TE_Kyle_Rudolph + TE_Levine_Toilolo + TE_Luke_Stocker
 + TE_Marcedes_Lewis + TE_Maxx_Williams + TE_Mike_Gesicki + TE_Mo_Alie_Cox
 + TE_MyCole_Pruitt + TE_Pharaoh_Brown + TE_Richard_Rodgers + TE_Robert_Tonyan
 + TE_Ryan_Izzo + TE_Stephen_Carlson + TE_TJ_Hockenson + TE_Trevon_Wesco
 + TE_Trey_Burton + TE_Tyler_Conklin + TE_Tyler_Davis + TE_Tyler_Eifert
 + TE_Tyler_Higbee + TE_Will_Dissly + TE_Zach_Ertz + WR_AJ_Brown
 + WR_Adam_Humphries + WR_Adam_Thielen + WR_Allen_Lazard + WR_Allen_Robinson
 + WR_Anthony_Miller + WR_Brandin_Cooks + WR_Braxton_Berrios
 + WR_Breshad_Perriman + WR_Calvin_Ridley + WR_Chad_Beebe + WR_Chris_Conley
 + WR_Christian_Kirk + WR_Collin_Johnson + WR_Cooper_Kupp
 + WR_Cordarrelle_Patterson + WR_Corey_Davis + WR_DJ_Chark + WR_DK_Metcalf
 + WR_Damiere_Byrd + WR_Danny_Amendola + WR_Darius_Slayton + WR_Darnell_Mooney
 + WR_Davante_Adams + WR_David_Moore + WR_DeAndre_Hopkins + WR_DeVante_Parker
 + WR_Denzel_Mims + WR_Deonte_Harris + WR_Donovan_Peoples_Jones
 + WR_Emmanuel_Sanders + WR_Golden_Tate + WR_Greg_Ward + WR_Henry_Ruggs
 + WR_Hunter_Renfrow + WR_Jakeem_Grant + WR_Jakobi_Meyers + WR_Jalen_Guyton
 + WR_Jalen_Reagor + WR_Jamison_Crowder + WR_Jarvis_Landry + WR_Josh_Reynolds
 + WR_Julio_Jones + WR_Justin_Jefferson + WR_Keelan_Cole + WR_Keenan_Allen
 + WR_Laviska_Shenault + WR_Marquez_Valdes_Scantling + WR_Marvin_Jones
 + WR_Michael_Pittman + WR_Michael_Thomas + WR_Mike_Williams + WR_Mohamed_Sanu
 + WR_Nelson_Agholor + WR_Rashard_Higgins + WR_Robert_Woods + WR_Russell_Gage
 + WR_Sterling_Shepard + WR_TY_Hilton + WR_Tee_Higgins + WR_Travis_Fulgham
 + WR_Tre'Quan_Smith + WR_Tyler_Boyd + WR_Tyler_Lockett + WR_Tyron_Johnson
 + WR_Will_Fuller + WR_Zach_Pascal = 6
_C2: QB_Aaron_Rodgers + QB_Baker_Mayfield + QB_Brandon_Allen + QB_Cam_Newton
 + QB_Carson_Wentz + QB_Chase_Daniel + QB_Daniel_Jones + QB_Deshaun_Watson
 + QB_Gardner_Minshew + QB_Jacoby_Brissett + QB_Jake_Luton + QB_Jared_Goff
 + QB_Joe_Flacco + QB_Justin_Herbert + QB_Kirk_Cousins + QB_Matt_Ryan
 + QB_Matthew_Stafford + QB_Mike_Glennon + QB_Mitchell_Trubisky
 + QB_Nick_Foles + QB_Philip_Rivers + QB_Russell_Wilson + QB_Ryan_Fitzpatrick
 + QB_Ryan_Tannehill + QB_Sam_Darnold + QB_Taysom_Hill + QB_Tua_Tagovailoa
 + QB_Tyrod_Taylor = 0
_C3: DEF_ARI + DEF_ATL + DEF_CHI + DEF_CIN + DEF_CLE + DEF_DET + DEF_GB
 + DEF_HOU + DEF_IND + DEF_LAC + DEF_LAR + DEF_LV + DEF_MIA + DEF_MIN + DEF_NE
 + DEF_NO + DEF_NYG + DEF_NYJ + DEF_PHI + DEF_SEA + DEF_TEN = 1
_C4: RB_Aaron_Jones + RB_Adrian_Peterson + RB_Alfred_Morris + RB_Alvin_Kamara
 + RB_Ameer_Abdullah + RB_Boston_Scott + RB_Brian_Hill + RB_Cam_Akers
 + RB_Carlos_Hyde + RB_Chase_Edmonds + RB_Chris_Carson + RB_Corey_Clement
 + RB_D'Andre_Swift + RB_D'Ernest_Johnson + RB_D'Onta_Foreman
 + RB_Damien_Harris + RB_Darrell_Henderson + RB_David_Johnson
 + RB_David_Montgomery + RB_DeAndre_Washington + RB_DeeJay_Dallas
 + RB_Derrick_Henry + RB_Devine_Ozigbo + RB_Devonta_Freeman
 + RB_Devontae_Booker + RB_Dion_Lewis + RB_Dontrell_Hilliard + RB_Duke_Johnson
 + RB_Frank_Gore + RB_Giovani_Bernard + RB_Ito_Smith + RB_JJ_Taylor
 + RB_Jalen_Richard + RB_James_Robinson + RB_James_White + RB_Jeremy_McNichols
 + RB_Jonathan_Taylor + RB_Jonathan_Williams + RB_Jordan_Howard
 + RB_Jordan_Wilkins + RB_Josh_Adams + RB_Joshua_Kelley + RB_Justin_Jackson
 + RB_Kalen_Ballage + RB_Kareem_Hunt + RB_Kenyan_Drake + RB_Kerryon_Johnson
 + RB_Latavius_Murray + RB_Malcolm_Brown + RB_Matt_Breida + RB_Miles_Sanders
 + RB_Myles_Gaskin + RB_Nick_Chubb + RB_Nyheim_Hines + RB_Rex_Burkhead
 + RB_Ryan_Nall + RB_Salvon_Ahmed + RB_Samaje_Perine + RB_Sony_Michel
 + RB_Tarik_Cohen + RB_Todd_Gurley + RB_Travis_Homer + RB_Trayveon_Williams
 + RB_Troymaine_Pope + RB_Ty_Johnson + RB_Tyler_Ervin + RB_Wayne_Gallman >= 1
_C5: RB_Aaron_Jones + RB_Adrian_Peterson + RB_Alfred_Morris + RB_Alvin_Kamara
 + RB_Ameer_Abdullah + RB_Boston_Scott + RB_Brian_Hill + RB_Cam_Akers
 + RB_Carlos_Hyde + RB_Chase_Edmonds + RB_Chris_Carson + RB_Corey_Clement
 + RB_D'Andre_Swift + RB_D'Ernest_Johnson + RB_D'Onta_Foreman
 + RB_Damien_Harris + RB_Darrell_Henderson + RB_David_Johnson
 + RB_David_Montgomery + RB_DeAndre_Washington + RB_DeeJay_Dallas
 + RB_Derrick_Henry + RB_Devine_Ozigbo + RB_Devonta_Freeman
 + RB_Devontae_Booker + RB_Dion_Lewis + RB_Dontrell_Hilliard + RB_Duke_Johnson
 + RB_Frank_Gore + RB_Giovani_Bernard + RB_Ito_Smith + RB_JJ_Taylor
 + RB_Jalen_Richard + RB_James_Robinson + RB_James_White + RB_Jeremy_McNichols
 + RB_Jonathan_Taylor + RB_Jonathan_Williams + RB_Jordan_Howard
 + RB_Jordan_Wilkins + RB_Josh_Adams + RB_Joshua_Kelley + RB_Justin_Jackson
 + RB_Kalen_Ballage + RB_Kareem_Hunt + RB_Kenyan_Drake + RB_Kerryon_Johnson
 + RB_Latavius_Murray + RB_Malcolm_Brown + RB_Matt_Breida + RB_Miles_Sanders
 + RB_Myles_Gaskin + RB_Nick_Chubb + RB_Nyheim_Hines + RB_Rex_Burkhead
 + RB_Ryan_Nall + RB_Salvon_Ahmed + RB_Samaje_Perine + RB_Sony_Michel
 + RB_Tarik_Cohen + RB_Todd_Gurley + RB_Travis_Homer + RB_Trayveon_Williams
 + RB_Troymaine_Pope + RB_Ty_Johnson + RB_Tyler_Ervin + RB_Wayne_Gallman <= 2
_C6: WR_AJ_Brown + WR_Adam_Humphries + WR_Adam_Thielen + WR_Allen_Lazard
 + WR_Allen_Robinson + WR_Anthony_Miller + WR_Brandin_Cooks
 + WR_Braxton_Berrios + WR_Breshad_Perriman + WR_Calvin_Ridley + WR_Chad_Beebe
 + WR_Chris_Conley + WR_Christian_Kirk + WR_Collin_Johnson + WR_Cooper_Kupp
 + WR_Cordarrelle_Patterson + WR_Corey_Davis + WR_DJ_Chark + WR_DK_Metcalf
 + WR_Damiere_Byrd + WR_Danny_Amendola + WR_Darius_Slayton + WR_Darnell_Mooney
 + WR_Davante_Adams + WR_David_Moore + WR_DeAndre_Hopkins + WR_DeVante_Parker
 + WR_Denzel_Mims + WR_Deonte_Harris + WR_Donovan_Peoples_Jones
 + WR_Emmanuel_Sanders + WR_Golden_Tate + WR_Greg_Ward + WR_Henry_Ruggs
 + WR_Hunter_Renfrow + WR_Jakeem_Grant + WR_Jakobi_Meyers + WR_Jalen_Guyton
 + WR_Jalen_Reagor + WR_Jamison_Crowder + WR_Jarvis_Landry + WR_Josh_Reynolds
 + WR_Julio_Jones + WR_Justin_Jefferson + WR_Keelan_Cole + WR_Keenan_Allen
 + WR_Laviska_Shenault + WR_Marquez_Valdes_Scantling + WR_Marvin_Jones
 + WR_Michael_Pittman + WR_Michael_Thomas + WR_Mike_Williams + WR_Mohamed_Sanu
 + WR_Nelson_Agholor + WR_Rashard_Higgins + WR_Robert_Woods + WR_Russell_Gage
 + WR_Sterling_Shepard + WR_TY_Hilton + WR_Tee_Higgins + WR_Travis_Fulgham
 + WR_Tre'Quan_Smith + WR_Tyler_Boyd + WR_Tyler_Lockett + WR_Tyron_Johnson
 + WR_Will_Fuller + WR_Zach_Pascal >= 3
_C7: WR_AJ_Brown + WR_Adam_Humphries + WR_Adam_Thielen + WR_Allen_Lazard
 + WR_Allen_Robinson + WR_Anthony_Miller + WR_Brandin_Cooks
 + WR_Braxton_Berrios + WR_Breshad_Perriman + WR_Calvin_Ridley + WR_Chad_Beebe
 + WR_Chris_Conley + WR_Christian_Kirk + WR_Collin_Johnson + WR_Cooper_Kupp
 + WR_Cordarrelle_Patterson + WR_Corey_Davis + WR_DJ_Chark + WR_DK_Metcalf
 + WR_Damiere_Byrd + WR_Danny_Amendola + WR_Darius_Slayton + WR_Darnell_Mooney
 + WR_Davante_Adams + WR_David_Moore + WR_DeAndre_Hopkins + WR_DeVante_Parker
 + WR_Denzel_Mims + WR_Deonte_Harris + WR_Donovan_Peoples_Jones
 + WR_Emmanuel_Sanders + WR_Golden_Tate + WR_Greg_Ward + WR_Henry_Ruggs
 + WR_Hunter_Renfrow + WR_Jakeem_Grant + WR_Jakobi_Meyers + WR_Jalen_Guyton
 + WR_Jalen_Reagor + WR_Jamison_Crowder + WR_Jarvis_Landry + WR_Josh_Reynolds
 + WR_Julio_Jones + WR_Justin_Jefferson + WR_Keelan_Cole + WR_Keenan_Allen
 + WR_Laviska_Shenault + WR_Marquez_Valdes_Scantling + WR_Marvin_Jones
 + WR_Michael_Pittman + WR_Michael_Thomas + WR_Mike_Williams + WR_Mohamed_Sanu
 + WR_Nelson_Agholor + WR_Rashard_Higgins + WR_Robert_Woods + WR_Russell_Gage
 + WR_Sterling_Shepard + WR_TY_Hilton + WR_Tee_Higgins + WR_Travis_Fulgham
 + WR_Tre'Quan_Smith + WR_Tyler_Boyd + WR_Tyler_Lockett + WR_Tyron_Johnson
 + WR_Will_Fuller + WR_Zach_Pascal <= 4
_C8: TE_Adam_Shaheen + TE_Adam_Trautman + TE_Anthony_Firkser
 + TE_Austin_Hooper + TE_Ben_Ellefson + TE_Brandon_Dillon + TE_Cethan_Carter
 + TE_Chris_Herndon + TE_Cole_Kmet + TE_Dallas_Goedert + TE_Dalton_Keene
 + TE_Dan_Arnold + TE_Darren_Fells + TE_Darren_Waller + TE_David_Njoku
 + TE_Demetrius_Harris + TE_Derek_Carrier + TE_Donald_Parham + TE_Drew_Sample
 + TE_Durham_Smythe + TE_Eric_Saubert + TE_Evan_Engram + TE_Foster_Moreau
 + TE_Geoff_Swaim + TE_Gerald_Everett + TE_Harrison_Bryant + TE_Hayden_Hurst
 + TE_Hunter_Henry + TE_Jace_Sternberger + TE_Jack_Doyle + TE_Jacob_Hollister
 + TE_Jaeden_Graham + TE_James_O'Shaughnessy + TE_Jared_Cook + TE_Jason_Witten
 + TE_Jesse_James + TE_Jimmy_Graham + TE_Johnny_Mundt + TE_Jonnu_Smith
 + TE_Jordan_Akins + TE_Jordan_Thomas + TE_Josh_Hill + TE_Josiah_Deguara
 + TE_Kaden_Smith + TE_Kahale_Warring + TE_Kyle_Rudolph + TE_Levine_Toilolo
 + TE_Luke_Stocker + TE_Marcedes_Lewis + TE_Maxx_Williams + TE_Mike_Gesicki
 + TE_Mo_Alie_Cox + TE_MyCole_Pruitt + TE_Pharaoh_Brown + TE_Richard_Rodgers
 + TE_Robert_Tonyan + TE_Ryan_Izzo + TE_Stephen_Carlson + TE_TJ_Hockenson
 + TE_Trevon_Wesco + TE_Trey_Burton + TE_Tyler_Conklin + TE_Tyler_Davis
 + TE_Tyler_Eifert + TE_Tyler_Higbee + TE_Will_Dissly + TE_Zach_Ertz >= 1
_C9: TE_Adam_Shaheen + TE_Adam_Trautman + TE_Anthony_Firkser
 + TE_Austin_Hooper + TE_Ben_Ellefson + TE_Brandon_Dillon + TE_Cethan_Carter
 + TE_Chris_Herndon + TE_Cole_Kmet + TE_Dallas_Goedert + TE_Dalton_Keene
 + TE_Dan_Arnold + TE_Darren_Fells + TE_Darren_Waller + TE_David_Njoku
 + TE_Demetrius_Harris + TE_Derek_Carrier + TE_Donald_Parham + TE_Drew_Sample
 + TE_Durham_Smythe + TE_Eric_Saubert + TE_Evan_Engram + TE_Foster_Moreau
 + TE_Geoff_Swaim + TE_Gerald_Everett + TE_Harrison_Bryant + TE_Hayden_Hurst
 + TE_Hunter_Henry + TE_Jace_Sternberger + TE_Jack_Doyle + TE_Jacob_Hollister
 + TE_Jaeden_Graham + TE_James_O'Shaughnessy + TE_Jared_Cook + TE_Jason_Witten
 + TE_Jesse_James + TE_Jimmy_Graham + TE_Johnny_Mundt + TE_Jonnu_Smith
 + TE_Jordan_Akins + TE_Jordan_Thomas + TE_Josh_Hill + TE_Josiah_Deguara
 + TE_Kaden_Smith + TE_Kahale_Warring + TE_Kyle_Rudolph + TE_Levine_Toilolo
 + TE_Luke_Stocker + TE_Marcedes_Lewis + TE_Maxx_Williams + TE_Mike_Gesicki
 + TE_Mo_Alie_Cox + TE_MyCole_Pruitt + TE_Pharaoh_Brown + TE_Richard_Rodgers
 + TE_Robert_Tonyan + TE_Ryan_Izzo + TE_Stephen_Carlson + TE_TJ_Hockenson
 + TE_Trevon_Wesco + TE_Trey_Burton + TE_Tyler_Conklin + TE_Tyler_Davis
 + TE_Tyler_Eifert + TE_Tyler_Higbee + TE_Will_Dissly + TE_Zach_Ertz <= 2
Binaries
DEF_ARI
DEF_ATL
DEF_CHI
DEF_CIN
DEF_CLE
DEF_DET
DEF_GB
DEF_HOU
DEF_IND
DEF_LAC
DEF_LAR
DEF_LV
DEF_MIA
DEF_MIN
DEF_NE
DEF_NO
DEF_NYG
DEF_NYJ
DEF_PHI
DEF_SEA
DEF_TEN
QB_Aaron_Rodgers
QB_Baker_Mayfield
QB_Brandon_Allen
QB_Cam_Newton
QB_Carson_Wentz
QB_Chase_Daniel
QB_Daniel_Jones
QB_Deshaun_Watson
QB_Gardner_Minshew
QB_Jacoby_Brissett
QB_Jake_Luton
QB_Jared_Goff
QB_Joe_Flacco
QB_Justin_Herbert
QB_Kirk_Cousins
QB_Matt_Ryan
QB_Matthew_Stafford
QB_Mike_Glennon
QB_Mitchell_Trubisky
QB_Nick_Foles
QB_Philip_Rivers
QB_Russell_Wilson
QB_Ryan_Fitzpatrick
QB_Ryan_Tannehill
QB_Sam_Darnold
QB_Taysom_Hill
QB_Tua_Tagovailoa
QB_Tyrod_Taylor
RB_Aaron_Jones
RB_Adrian_Peterson
RB_Alfred_Morris
RB_Alvin_Kamara
RB_Ameer_Abdullah
RB_Boston_Scott
RB_Brian_Hill
RB_Cam_Akers
RB_Carlos_Hyde
RB_Chase_Edmonds
RB_Chris_Carson
RB_Corey_Clement
RB_Cullen_Gillaspia
RB_D'Andre_Swift
RB_D'Ernest_Johnson
RB_D'Onta_Foreman
RB_DJ_Foster
RB_Damien_Harris
RB_Dare_Ogunbowale
RB_Darrell_Henderson
RB_Darrynton_Evans
RB_David_Johnson
RB_David_Montgomery
RB_DeAndre_Washington
RB_DeeJay_Dallas
RB_Derrick_Henry
RB_Devine_Ozigbo
RB_Devonta_Freeman
RB_Devontae_Booker
RB_Dion_Lewis
RB_Dontrell_Hilliard
RB_Duke_Johnson
RB_Dwayne_Washington
RB_Elijhaa_Penny
RB_Frank_Gore
RB_Giovani_Bernard
RB_Ito_Smith
RB_JJ_Taylor
RB_Jalen_Richard
RB_James_Robinson
RB_James_White
RB_Jason_Huntley
RB_Jeremy_McNichols
RB_Jonathan_Taylor
RB_Jonathan_Williams
RB_Jordan_Howard
RB_Jordan_Wilkins
RB_Josh_Adams
RB_Joshua_Kelley
RB_Justin_Jackson
RB_Kalen_Ballage
RB_Kareem_Hunt
RB_Kenyan_Drake
RB_Kerryon_Johnson
RB_Latavius_Murray
RB_Lynn_Bowden
RB_Malcolm_Brown
RB_Matt_Breida
RB_Michael_Burton
RB_Mike_Boone
RB_Miles_Sanders
RB_Myles_Gaskin
RB_Nick_Chubb
RB_Nyheim_Hines
RB_Patrick_Laird
RB_Qadree_Ollison
RB_Rex_Burkhead
RB_Ryan_Nall
RB_Salvon_Ahmed
RB_Samaje_Perine
RB_Sony_Michel
RB_Tarik_Cohen
RB_Todd_Gurley
RB_Travis_Homer
RB_Trayveon_Williams
RB_Troymaine_Pope
RB_Ty_Johnson
RB_Tyler_Ervin
RB_Wayne_Gallman
TE_Adam_Shaheen
TE_Adam_Trautman
TE_Anthony_Firkser
TE_Austin_Hooper
TE_Ben_Ellefson
TE_Brandon_Dillon
TE_Cethan_Carter
TE_Chris_Herndon
TE_Cole_Kmet
TE_Dallas_Goedert
TE_Dalton_Keene
TE_Dan_Arnold
TE_Darren_Fells
TE_Darren_Waller
TE_David_Njoku
TE_Demetrius_Harris
TE_Derek_Carrier
TE_Donald_Parham
TE_Drew_Sample
TE_Durham_Smythe
TE_Eric_Saubert
TE_Evan_Engram
TE_Foster_Moreau
TE_Geoff_Swaim
TE_Gerald_Everett
TE_Harrison_Bryant
TE_Hayden_Hurst
TE_Hunter_Henry
TE_Jace_Sternberger
TE_Jack_Doyle
TE_Jacob_Hollister
TE_Jaeden_Graham
TE_James_O'Shaughnessy
TE_Jared_Cook
TE_Jason_Witten
TE_Jesse_James
TE_Jimmy_Graham
TE_Johnny_Mundt
TE_Jonnu_Smith
TE_Jordan_Akins
TE_Jordan_Thomas
TE_Josh_Hill
TE_Josiah_Deguara
TE_Kaden_Smith
TE_Kahale_Warring
TE_Kyle_Rudolph
TE_Levine_Toilolo
TE_Luke_Stocker
TE_Marcedes_Lewis
TE_Maxx_Williams
TE_Mike_Gesicki
TE_Mo_Alie_Cox
TE_MyCole_Pruitt
TE_Pharaoh_Brown
TE_Richard_Rodgers
TE_Robert_Tonyan
TE_Ryan_Izzo
TE_Stephen_Carlson
TE_TJ_Hockenson
TE_Trevon_Wesco
TE_Trey_Burton
TE_Tyler_Conklin
TE_Tyler_Davis
TE_Tyler_Eifert
TE_Tyler_Higbee
TE_Will_Dissly
TE_Zach_Ertz
WR_AJ_Brown
WR_AJ_Green
WR_Adam_Humphries
WR_Adam_Thielen
WR_Alex_Erickson
WR_Allen_Lazard
WR_Allen_Robinson
WR_Alshon_Jeffery
WR_Andy_Isabella
WR_Anthony_Miller
WR_Antonio_Callaway
WR_Ashton_Dulin
WR_Austin_Mack
WR_Brandin_Cooks
WR_Brandon_Powell
WR_Braxton_Berrios
WR_Breshad_Perriman
WR_Bryan_Edwards
WR_CJ_Board
WR_Calvin_Ridley
WR_Chad_Beebe
WR_Chris_Conley
WR_Christian_Blake
WR_Christian_Kirk
WR_Collin_Johnson
WR_Cooper_Kupp
WR_Cordarrelle_Patterson
WR_Corey_Davis
WR_DJ_Chark
WR_DK_Metcalf
WR_Damiere_Byrd
WR_Danny_Amendola
WR_Dante_Pettis
WR_Darius_Slayton
WR_Darnell_Mooney
WR_Davante_Adams
WR_David_Moore
WR_DeAndre_Carter
WR_DeAndre_Hopkins
WR_DeVante_Parker
WR_Denzel_Mims
WR_Deonte_Harris
WR_Donovan_Peoples_Jones
WR_Donte_Moncrief
WR_Emmanuel_Sanders
WR_Equanimeous_St_Brown
WR_Freddie_Swain
WR_Golden_Tate
WR_Greg_Ward
WR_Gunner_Olszewski
WR_Henry_Ruggs
WR_Hunter_Renfrow
WR_JJ_Arcega_Whiteside
WR_Jakeem_Grant
WR_Jakobi_Meyers
WR_Jalen_Guyton
WR_Jalen_Reagor
WR_Jamal_Agnew
WR_Jamison_Crowder
WR_Jarvis_Landry
WR_Javon_Wims
WR_Jeff_Smith
WR_Joe_Reed
WR_John_Hightower
WR_Josh_Reynolds
WR_Julio_Jones
WR_Justin_Jefferson
WR_Juwan_Johnson
WR_KJ_Hill
WR_KJ_Osborn
WR_Kalif_Raymond
WR_KeeSean_Johnson
WR_Keelan_Cole
WR_Keenan_Allen
WR_Keke_Coutee
WR_Laviska_Shenault
WR_Mack_Hollins
WR_Malcolm_Perry
WR_Malik_Taylor
WR_Marcus_Johnson
WR_Marquez_Valdes_Scantling
WR_Marvin_Jones
WR_Michael_Pittman
WR_Michael_Thomas
WR_Mike_Thomas
WR_Mike_Williams
WR_Mohamed_Sanu
WR_N'Keal_Harry
WR_Nelson_Agholor
WR_Nsimba_Webster
WR_Quintez_Cephus
WR_Rashard_Higgins
WR_Riley_Ridley
WR_Robert_Woods
WR_Russell_Gage
WR_Sterling_Shepard
WR_TY_Hilton
WR_Tajae_Sharpe
WR_Tee_Higgins
WR_Tommylee_Lewis
WR_Travis_Fulgham
WR_Tre'Quan_Smith
WR_Trent_Sherfield
WR_Tyler_Boyd
WR_Tyler_Lockett
WR_Tyron_Johnson
WR_Van_Jefferson
WR_Vyncint_Smith
WR_Will_Fuller
WR_Zach_Pascal
WR_Zay_Jones
End
